33D32945 STP File, STP Format Version 1.0

SECTION Comment
Name    "i080-345"
Creator "Cees Duin"
Remark  "Incidence graph"
END

SECTION Graph
Nodes 80
Edges 632
E 1 2 295
E 1 12 300
E 1 14 298
E 1 15 300
E 1 17 297
E 1 18 299
E 1 19 293
E 1 21 187
E 1 26 202
E 1 32 197
E 1 33 197
E 1 43 196
E 1 47 196
E 1 48 211
E 1 49 201
E 1 53 198
E 1 59 193
E 1 60 206
E 1 61 201
E 1 62 199
E 1 64 193
E 1 70 203
E 1 76 201
E 2 3 305
E 2 6 305
E 2 11 293
E 2 15 295
E 2 16 304
E 2 31 211
E 2 37 207
E 2 42 204
E 2 45 195
E 2 51 200
E 2 52 201
E 2 56 199
E 2 58 204
E 2 71 197
E 3 17 298
E 3 19 299
E 3 23 199
E 3 24 202
E 3 26 196
E 3 29 199
E 3 34 188
E 3 48 202
E 3 59 194
E 3 67 199
E 4 22 204
E 4 26 201
E 4 27 206
E 4 28 197
E 4 30 197
E 4 31 203
E 4 32 202
E 4 33 199
E 4 34 209
E 4 38 201
E 4 39 201
E 4 54 197
E 4 57 206
E 4 70 196
E 4 79 200
E 5 10 303
E 5 11 298
E 5 14 301
E 5 15 310
E 5 16 291
E 5 20 302
E 5 27 201
E 5 33 199
E 5 37 200
E 5 46 194
E 5 51 196
E 5 59 192
E 5 62 198
E 5 64 195
E 5 67 189
E 5 68 205
E 5 72 206
E 5 73 195
E 5 75 193
E 6 12 304
E 6 15 298
E 6 20 292
E 6 24 191
E 6 35 203
E 6 37 196
E 6 45 201
E 6 52 192
E 6 54 197
E 6 63 195
E 6 65 188
E 6 67 190
E 6 71 203
E 6 72 207
E 6 77 216
E 6 80 195
E 7 17 296
E 7 19 305
E 7 28 193
E 7 30 197
E 7 31 196
E 7 34 193
E 7 41 198
E 7 45 204
E 7 52 197
E 7 54 198
E 7 55 196
E 7 66 193
E 7 73 202
E 7 74 195
E 7 77 203
E 7 79 201
E 7 80 206
E 8 10 298
E 8 17 310
E 8 21 197
E 8 22 199
E 8 31 203
E 8 50 209
E 8 52 206
E 8 57 197
E 8 65 205
E 8 72 206
E 8 73 203
E 8 75 194
E 9 10 305
E 9 14 302
E 9 21 202
E 9 25 189
E 9 36 198
E 9 40 192
E 9 42 196
E 9 46 204
E 9 54 190
E 9 55 209
E 9 56 188
E 9 60 202
E 9 74 209
E 9 78 200
E 10 11 294
E 10 13 297
E 10 22 197
E 10 23 190
E 10 24 200
E 10 27 199
E 10 33 203
E 10 34 196
E 10 38 206
E 10 39 205
E 10 48 195
E 10 51 198
E 10 55 209
E 10 57 195
E 10 59 196
E 10 60 198
E 10 66 200
E 10 68 204
E 10 71 189
E 11 16 301
E 11 24 193
E 11 29 194
E 11 34 199
E 11 36 198
E 11 43 203
E 11 51 197
E 11 53 201
E 11 66 200
E 11 74 198
E 11 75 198
E 11 76 204
E 11 80 204
E 12 13 299
E 12 14 300
E 12 20 292
E 12 23 199
E 12 25 198
E 12 28 203
E 12 45 194
E 12 47 196
E 12 49 201
E 12 50 193
E 12 51 191
E 12 52 198
E 12 54 203
E 12 60 191
E 12 61 203
E 12 68 192
E 12 73 198
E 12 76 200
E 13 17 295
E 13 18 294
E 13 19 303
E 13 21 199
E 13 30 202
E 13 37 198
E 13 39 209
E 13 41 202
E 13 46 200
E 13 48 207
E 13 56 198
E 13 62 203
E 13 67 204
E 14 16 293
E 14 18 302
E 14 21 198
E 14 25 207
E 14 26 205
E 14 37 199
E 14 43 203
E 14 54 195
E 14 57 206
E 14 61 202
E 14 62 199
E 14 63 199
E 14 64 198
E 14 66 198
E 14 74 206
E 14 75 199
E 15 17 293
E 15 23 197
E 15 24 204
E 15 32 188
E 15 42 200
E 15 44 192
E 15 49 202
E 15 62 203
E 15 65 200
E 15 71 200
E 15 73 203
E 15 74 202
E 15 75 198
E 15 77 204
E 16 21 201
E 16 25 204
E 16 26 206
E 16 27 202
E 16 31 201
E 16 39 203
E 16 40 199
E 16 46 200
E 16 51 199
E 16 53 205
E 16 54 206
E 16 64 205
E 16 66 207
E 16 68 199
E 16 71 198
E 17 19 299
E 17 29 206
E 17 30 200
E 17 32 197
E 17 62 200
E 17 66 199
E 18 20 301
E 18 23 200
E 18 25 200
E 18 29 204
E 18 32 205
E 18 34 204
E 18 35 190
E 18 37 201
E 18 38 201
E 18 41 199
E 18 47 200
E 18 54 202
E 18 56 188
E 18 60 202
E 18 63 198
E 18 65 200
E 18 67 200
E 18 73 201
E 18 75 204
E 18 76 203
E 18 78 196
E 19 25 205
E 19 46 194
E 19 49 202
E 19 54 191
E 19 55 199
E 19 56 191
E 19 66 197
E 19 68 206
E 19 71 194
E 19 72 201
E 19 80 200
E 20 31 198
E 20 33 195
E 20 35 204
E 20 39 196
E 20 42 205
E 20 47 204
E 20 48 197
E 20 51 198
E 20 53 204
E 20 63 193
E 20 64 201
E 21 33 98
E 21 34 109
E 21 40 108
E 21 45 97
E 21 62 107
E 21 64 107
E 21 74 93
E 21 76 104
E 21 78 98
E 21 80 98
E 22 38 100
E 22 44 90
E 22 45 103
E 22 51 99
E 22 56 94
E 22 57 90
E 22 59 96
E 22 60 100
E 22 61 102
E 22 65 91
E 22 69 104
E 22 74 104
E 23 27 98
E 23 31 103
E 23 39 102
E 23 40 104
E 23 45 98
E 23 49 102
E 23 54 100
E 23 56 101
E 23 62 104
E 23 64 106
E 23 65 102
E 23 74 102
E 23 75 96
E 23 76 103
E 23 80 106
E 24 26 98
E 24 29 93
E 24 34 101
E 24 36 95
E 24 39 97
E 24 45 102
E 24 47 103
E 24 50 93
E 24 54 96
E 24 55 94
E 24 57 95
E 24 64 97
E 24 66 108
E 24 70 102
E 24 72 98
E 24 74 101
E 25 28 97
E 25 33 100
E 25 44 109
E 25 45 100
E 25 47 100
E 25 56 96
E 25 59 97
E 25 60 98
E 25 61 103
E 25 66 103
E 25 71 100
E 25 76 95
E 25 79 90
E 26 32 103
E 26 35 102
E 26 37 102
E 26 41 99
E 26 42 98
E 26 43 94
E 26 47 95
E 26 67 96
E 26 68 103
E 26 69 105
E 26 74 103
E 27 29 101
E 27 30 103
E 27 34 99
E 27 40 99
E 27 41 93
E 27 45 99
E 27 50 93
E 27 57 96
E 27 58 97
E 27 61 103
E 27 62 100
E 27 63 89
E 27 79 96
E 27 80 94
E 28 32 102
E 28 47 100
E 28 50 99
E 28 60 98
E 28 63 100
E 28 68 111
E 28 69 98
E 28 71 106
E 28 73 100
E 28 76 99
E 28 79 93
E 29 30 106
E 29 32 102
E 29 38 107
E 29 41 101
E 29 44 98
E 29 46 106
E 29 48 99
E 29 50 99
E 29 57 98
E 29 61 98
E 29 62 102
E 29 73 98
E 29 74 108
E 29 77 99
E 29 79 98
E 30 35 94
E 30 40 104
E 30 41 93
E 30 48 91
E 30 61 106
E 30 79 99
E 30 80 100
E 31 35 101
E 31 40 99
E 31 51 104
E 31 53 92
E 31 60 96
E 31 61 101
E 31 65 98
E 31 71 101
E 31 74 104
E 31 77 99
E 32 34 100
E 32 36 102
E 32 45 99
E 32 49 100
E 32 50 92
E 32 52 100
E 32 55 105
E 32 61 94
E 32 62 110
E 32 69 105
E 32 71 104
E 32 73 107
E 33 48 94
E 33 55 100
E 33 57 93
E 33 63 110
E 33 65 93
E 33 69 98
E 33 78 106
E 34 36 102
E 34 38 96
E 34 55 103
E 34 67 90
E 34 70 103
E 35 38 103
E 35 43 95
E 35 49 99
E 35 50 96
E 35 63 105
E 35 64 99
E 35 74 98
E 35 75 108
E 35 78 108
E 35 79 95
E 35 80 100
E 36 39 104
E 36 40 97
E 36 46 101
E 36 47 111
E 36 50 97
E 36 51 102
E 36 57 97
E 36 69 100
E 36 70 105
E 36 78 89
E 36 79 100
E 37 40 99
E 37 44 101
E 37 49 91
E 37 53 100
E 37 54 95
E 37 57 101
E 37 60 98
E 37 62 106
E 37 68 106
E 37 75 101
E 38 42 100
E 38 44 108
E 38 50 103
E 38 60 93
E 38 79 98
E 39 42 101
E 39 43 98
E 39 44 101
E 39 46 104
E 39 52 97
E 39 62 92
E 39 64 102
E 39 65 89
E 39 77 95
E 40 44 108
E 40 47 100
E 40 54 103
E 40 64 103
E 40 67 98
E 40 68 100
E 40 72 101
E 40 76 99
E 40 78 95
E 41 53 102
E 41 57 97
E 41 66 93
E 41 71 98
E 41 73 95
E 41 78 100
E 42 44 99
E 42 57 108
E 42 69 101
E 43 48 99
E 43 55 103
E 43 59 95
E 43 67 102
E 43 70 93
E 43 78 105
E 45 55 102
E 45 67 99
E 45 68 100
E 45 69 90
E 45 71 103
E 45 80 102
E 46 48 98
E 46 65 93
E 46 67 100
E 46 70 102
E 46 71 96
E 46 79 97
E 46 80 107
E 47 55 99
E 47 56 102
E 47 57 93
E 47 59 98
E 47 62 91
E 47 64 95
E 47 65 94
E 47 67 93
E 47 68 112
E 48 49 107
E 48 52 104
E 48 65 94
E 48 72 100
E 49 51 102
E 49 52 104
E 49 53 97
E 49 54 100
E 49 66 97
E 49 67 96
E 49 71 93
E 49 72 98
E 49 73 101
E 49 77 100
E 50 54 101
E 50 62 96
E 50 63 102
E 50 70 106
E 51 56 102
E 51 59 101
E 51 64 109
E 51 69 106
E 51 70 94
E 51 77 99
E 52 53 99
E 52 71 104
E 52 79 101
E 53 61 100
E 53 63 93
E 54 67 103
E 54 75 102
E 55 57 101
E 55 58 96
E 55 71 96
E 55 77 99
E 55 80 101
E 56 57 94
E 56 63 98
E 56 67 98
E 56 68 102
E 56 70 105
E 56 75 105
E 56 78 108
E 56 79 98
E 57 70 100
E 57 76 98
E 57 79 97
E 58 60 107
E 58 62 97
E 58 66 99
E 59 79 104
E 60 68 100
E 60 78 103
E 61 62 98
E 61 79 101
E 62 65 92
E 62 67 109
E 62 71 92
E 63 65 100
E 63 70 93
E 63 73 96
E 63 75 100
E 64 73 105
E 65 68 98
E 65 73 99
E 66 78 96
E 66 80 101
E 67 77 96
E 67 79 99
E 69 73 94
E 69 74 91
E 69 77 108
E 69 78 105
E 69 79 107
E 71 73 98
E 71 75 103
E 72 73 99
E 72 75 104
E 72 76 98
E 73 74 99
E 73 75 95
E 74 78 91
E 75 79 105
E 78 79 100
E 78 80 103
END

SECTION Terminals
Terminals 20
T 1
T 2
T 3
T 4
T 5
T 6
T 7
T 8
T 9
T 10
T 11
T 12
T 13
T 14
T 15
T 16
T 17
T 18
T 19
T 20
END

EOF
